s = 11+1;
n = 3;
swap = 1;
perm_count = 6;
init_perm = 
    [| 1, 2, 3,
     | 1, 3, 2,
     | 2, 1, 3,
     | 2, 3, 1,
     | 3, 1, 2,
     | 3, 2, 1 |];
% takes 1.5s

% with same across perm, ascend, count 0123: 1min 42s
% with ascend, count 0123: 0.6s
% with ascend, count 123: 1min 17s
% with ascend, count 012: 2min 2s


% With all commands, both inits and goals,
% 8 max steps

% Step: 1
% 1 2 3 0 1 2 3 0   
% 1 3 2 0 1 3 2 0   
% 2 1 3 0 2 1 3 0   
% 2 3 1 0 2 3 1 0   
% 3 1 2 0 3 1 2 0   
% 3 2 1 0 3 2 1 0   
% Run: Mov 8 2

% Step: 2
% 1 2 3 0 1 2 3 2   
% 1 3 2 0 1 3 2 3   
% 2 1 3 0 2 1 3 1   
% 2 3 1 0 2 3 1 3   
% 3 1 2 0 3 1 2 1   
% 3 2 1 0 3 2 1 2   
% Run: Min 8 7

% Step: 3
% 1 2 3 0 1 2 3 2   
% 1 3 2 0 1 3 2 2   
% 2 1 3 0 2 1 3 1   
% 2 3 1 0 2 3 1 1   
% 3 1 2 0 3 1 2 1   
% 3 2 1 0 3 2 1 1   
% Run: Max 7 6

% Step: 4
% 1 2 3 0 1 2 3 2   
% 1 3 2 0 1 3 3 2   
% 2 1 3 0 2 1 3 1   
% 2 3 1 0 2 3 3 1   
% 3 1 2 0 3 1 2 1   
% 3 2 1 0 3 2 2 1   
% Run: Mov 6 5

% Step: 5
% 1 2 3 0 1 1 3 2   
% 1 3 2 0 1 1 3 2   
% 2 1 3 0 2 2 3 1   
% 2 3 1 0 2 2 3 1   
% 3 1 2 0 3 3 2 1   
% 3 2 1 0 3 3 2 1   
% Run: Max 6 8

% Step: 6
% 1 2 3 0 1 2 3 2   
% 1 3 2 0 1 2 3 2   
% 2 1 3 0 2 2 3 1   
% 2 3 1 0 2 2 3 1   
% 3 1 2 0 3 3 2 1   
% 3 2 1 0 3 3 2 1   
% Run: Min 6 7

% Step: 7
% 1 2 3 0 1 2 3 2   
% 1 3 2 0 1 2 3 2   
% 2 1 3 0 2 2 3 1   
% 2 3 1 0 2 2 3 1   
% 3 1 2 0 3 2 2 1   
% 3 2 1 0 3 2 2 1   
% Run: Max 7 5

% Step: 8
% 1 2 3 0 1 2 3 2   
% 1 3 2 0 1 2 3 2   
% 2 1 3 0 2 2 3 1   
% 2 3 1 0 2 2 3 1   
% 3 1 2 0 3 2 3 1   
% 3 2 1 0 3 2 3 1   
% Run: Min 5 8

% Step: 9
% 1 2 3 0 1 2 3 2   
% 1 3 2 0 1 2 3 2   
% 2 1 3 0 1 2 3 1   
% 2 3 1 0 1 2 3 1   
% 3 1 2 0 1 2 3 1   
% 3 2 1 0 1 2 3 1   


% Program:
% Mov 8 2
% Min 8 7
% Max 7 6
% Mov 6 5
% Max 6 8
% Min 6 7
% Max 7 5
% Min 5 8
% ----------

% real    1m55,391s
% user    1m55,235s
% sys     0m0,153s







% 11 max
% Program:
% Cmp 1 2
% Max 6 5
% Min 5 7
% Mov 7 4
% Max 7 6
% Mov 6 3
% CMovG 1 2
% Mov 8 1
% Min 5 8
% Max 6 8
% Mov 2 7
% ----------

% real    0m0,948s